ObjectiveValue = 5866.4;
flow=[(1,6,2)(5,0,2)(5,1,4)(5,2,6)(5,4,0)(5,6,19)(5,7,1)(5,8,0)(5,9,0)(5,10,5)(5,11,18)(5,12,0)(5,13,1)(6,1,4)(6,5,1)(6,7,6)(6,10,3)(6,11,44)(8,9,1)(10,6,9)(11,6,12)(11,9,1)(11,10,9)(11,12,13)(12,5,5)(12,6,31)(12,7,4)(12,10,0)(12,13,0)];
